% =============================================================================
% Cork Variant: Single Cycle
% =============================================================================
% Original: cork-1-line20_0
% Variant: First cycle only (42 stops)
% Generated by Cork Variant Generator
%
% Modification: Extracted first operational cycle from full-day instance
% to make it feasible with standard CLP parameters.
%
% Original problem: 13-14 cycles per day (378-568 stops) → INFEASIBLE
% This variant: 1 cycle (~42 stops) → FEASIBLE
% =============================================================================

% --- Problem Dimensions ---
num_buses = 4;
num_stations = 40;

% --- Energy Parameters (CLP Model) ---
Cmax = 1000;  % 100 kWh
Cmin = 200;   % 20 kWh
alpha = 100;  % 10 kWh/min

% --- Time and Schedule Parameters ---
mu = 50;      % 5 min
SM = 10;      % 1 min
psi = 10;     % 1 min
beta = 100;   % 10 min
M = 100000;

% --- Route Structure ---
max_stops = 42;
num_stops = [20,22,20,20];

% --- Station Sequence (st_bi) ---
st_bi = array2d(1..4, 1..42, [
  0,1,2,3,4,5,6,7,8,9,10,11,12,13,14,15,16,17,18,19,19,20,21,22,23,24,25,26,27,28,29,30,31,32,33,34,35,36,37,38,39,0,  % Bus 1
  19,20,21,22,23,24,25,26,27,28,29,30,31,32,33,34,35,36,37,38,39,0,0,1,2,3,4,5,6,7,8,9,10,11,12,13,14,15,16,17,18,19,  % Bus 2
  0,1,2,3,4,5,6,7,8,9,10,11,12,13,14,15,16,17,18,19,19,20,21,22,23,24,25,26,27,28,29,30,31,32,33,34,35,36,37,38,39,0,  % Bus 3
  0,1,2,3,4,5,6,7,8,9,10,11,12,13,14,15,16,17,18,19,19,20,21,22,23,24,25,26,27,28,29,30,31,32,33,34,35,36,37,38,39,0  % Bus 4
]);

% --- Energy Consumption (D) ---
D = array2d(1..4, 1..42, [
  0,6,3,3,3,3,3,3,3,3,3,3,3,3,3,3,3,3,3,3,0,2,2,3,3,3,3,3,3,3,3,3,3,2,2,2,3,3,3,3,3,8,  % Bus 1
  0,2,2,2,2,2,2,2,2,2,2,2,2,2,2,2,3,3,3,3,3,8,0,6,3,3,3,3,3,3,3,3,3,3,3,3,3,3,3,3,3,3,  % Bus 2
  0,6,3,3,3,3,3,3,3,3,3,3,3,3,3,3,3,3,3,3,0,2,2,3,3,3,3,3,3,3,3,3,3,2,2,2,3,3,3,3,3,8,  % Bus 3
  0,6,3,3,3,3,3,3,3,3,3,3,3,3,3,3,3,3,3,3,0,2,2,3,3,3,3,3,3,3,3,3,3,2,2,2,3,3,3,3,3,8  % Bus 4
]);

% --- Travel Time (T) ---
T = array2d(1..4, 1..42, [
  0,40,20,20,20,20,20,20,20,20,20,20,20,20,20,20,20,20,20,20,0,10,10,20,20,20,20,20,20,20,20,20,20,10,10,10,20,20,20,20,20,50,  % Bus 1
  0,10,10,10,10,10,10,10,10,10,10,10,10,10,10,10,20,20,20,20,20,50,0,40,20,20,20,20,20,20,20,20,20,20,20,20,20,20,20,20,20,20,  % Bus 2
  0,40,20,20,20,20,20,20,20,20,20,20,20,20,20,20,20,20,20,20,0,10,10,20,20,20,20,20,20,20,20,20,20,10,10,10,20,20,20,20,20,50,  % Bus 3
  0,40,20,20,20,20,20,20,20,20,20,20,20,20,20,20,20,20,20,20,0,10,10,20,20,20,20,20,20,20,20,20,20,10,10,10,20,20,20,20,20,50  % Bus 4
]);

% --- Timetable (tau_bi) ---
tau_bi = array2d(1..4, 1..42, [
  4200,4240,4260,4280,4300,4320,4340,4360,4380,4400,4420,4440,4460,4480,4500,4520,4540,4560,4580,4600,4600,4610,4620,4640,4660,4680,4700,4720,4740,4760,4780,4800,4820,4830,4840,4850,4870,4890,4910,4930,4950,5000,  % Bus 1
  4300,4310,4320,4330,4340,4350,4360,4370,4380,4390,4400,4410,4420,4430,4440,4450,4470,4490,4510,4530,4550,4600,4600,4640,4660,4680,4700,4720,4740,4760,4780,4800,4820,4840,4860,4880,4900,4920,4940,4960,4980,5000,  % Bus 2
  4400,4440,4460,4480,4500,4520,4540,4560,4580,4600,4620,4640,4660,4680,4700,4720,4740,4760,4780,4800,4800,4810,4820,4840,4860,4880,4900,4920,4940,4960,4980,5000,5020,5030,5040,5050,5070,5090,5110,5130,5150,5200,  % Bus 3
  4800,4840,4860,4880,4900,4920,4940,4960,4980,5000,5020,5040,5060,5080,5100,5120,5140,5160,5180,5200,5200,5210,5220,5240,5260,5280,5300,5320,5340,5360,5380,5400,5420,5430,5440,5450,5470,5490,5510,5530,5550,5600  % Bus 4
]);
